432 433 434 435 436 437 438 454 440 441 450 449 448 447 446 442 439 443 444 445 431 381 390 389 388 387 386 382 385 383 384 409 408 407 406 405 404 400 399 398 397 391 392 393 394 395 396 371 372 370 369 368 367 366 329 328 327 326 325 324 323 322 373 374 375 376 379 380 378 377 315 314 316 313 312 311 310 309 308 307 305 318 317 321 320 319 306 304 303 301 302 508 507 506 505 504 503 502 498 501 451 453 452 499 500 461 462 460 459 458 457 456 455 3 2 1 4 0 5 573 572 571 468 469 467 466 465 464 463 497 496 470 495 471 472 473 474 570 569 568 20 19 18 17 8 7 6 9 10 11 16 15 14 13 12 23 22 21 24 25 26 27 28 29 31 30 32 33 34 35 36 37 38 40 41 39 42 43 44 47 48 49 54 53 55 56 58 57 82 83 84 51 52 50 85 86 81 59 60 61 63 62 79 80 78 77 76 64 75 74 73 72 65 66 67 68 69 70 71 123 122 121 120 119 118 95 96 97 94 93 89 88 87 90 92 91 46 45 555 556 557 552 553 554 98 99 100 101 102 103 104 105 106 117 124 125 126 127 128 129 130 132 131 113 112 114 116 115 110 111 161 160 162 168 163 167 166 164 154 155 156 159 157 158 133 134 135 136 137 138 139 140 141 142 143 144 145 146 151 150 149 152 148 147 153 165 203 204 202 201 200 199 198 205 206 207 208 209 210 211 212 213 214 215 216 217 223 221 220 218 219 222 224 232 233 531 532 231 230 229 228 227 189 225 226 190 191 192 193 194 195 196 197 184 185 183 182 186 188 187 538 537 539 540 176 177 178 179 181 180 169 171 170 172 175 174 173 108 109 107 542 541 543 544 547 546 545 548 549 551 550 559 558 560 561 562 563 564 565 566 567 475 476 477 478 479 480 481 482 483 484 485 486 487 535 536 534 488 533 489 490 491 493 524 525 492 526 523 522 521 520 494 518 519 517 516 515 514 513 509 510 511 512 527 528 529 530 234 235 236 237 240 239 238 246 247 245 244 243 242 241 248 249 250 251 252 254 253 255 256 257 300 258 259 260 261 262 263 264 266 265 299 298 297 267 271 272 269 268 270 296 295 294 293 291 292 273 274 275 290 289 288 276 277 278 279 282 281 280 287 286 285 284 283 334 335 336 337 338 339 333 332 331 330 340 341 344 343 342 365 364 345 346 362 363 361 359 360 401 403 402 357 358 348 347 349 350 351 415 416 414 413 352 353 354 355 356 412 411 410 418 417 419 420 421 422 423 424 425 426 427 428 429 430